p tw 864 13681 8 
1 9 
1 11 
1 721 
1 723 
2 7 
2 10 
2 12 
2 722 
2 724 
3 8 
3 10 
3 713 
4 7 
4 9 
4 714 
5 9 
5 10 
5 715 
6 7 
6 8 
6 716 
11 18 
11 19 
11 723 
12 17 
12 20 
12 724 
13 18 
13 20 
13 23 
14 17 
14 19 
14 24 
15 19 
15 20 
15 25 
16 17 
16 18 
16 26 
21 28 
21 29 
21 31 
21 725 
21 727 
22 27 
22 30 
22 32 
22 726 
22 728 
23 28 
23 30 
24 27 
24 29 
25 29 
25 30 
26 27 
26 28 
31 38 
31 39 
31 727 
32 37 
32 40 
32 728 
33 38 
33 40 
33 43 
34 37 
34 39 
34 44 
35 39 
35 40 
35 45 
36 37 
36 38 
36 46 
41 48 
41 49 
41 51 
41 729 
41 731 
42 47 
42 50 
42 52 
42 730 
42 732 
43 48 
43 50 
44 47 
44 49 
45 49 
45 50 
46 47 
46 48 
51 58 
51 59 
51 731 
52 57 
52 60 
52 732 
53 58 
53 60 
53 63 
54 57 
54 59 
54 64 
55 59 
55 60 
55 65 
56 57 
56 58 
56 66 
61 68 
61 69 
61 71 
61 733 
61 735 
62 67 
62 70 
62 72 
62 734 
62 736 
63 68 
63 70 
64 67 
64 69 
65 69 
65 70 
66 67 
66 68 
71 78 
71 79 
71 735 
72 77 
72 80 
72 736 
73 78 
73 80 
73 83 
74 77 
74 79 
74 84 
75 79 
75 80 
75 85 
76 77 
76 78 
76 86 
81 88 
81 89 
81 91 
81 737 
81 739 
82 87 
82 90 
82 92 
82 738 
82 740 
83 88 
83 90 
84 87 
84 89 
85 89 
85 90 
86 87 
86 88 
91 98 
91 99 
91 739 
92 97 
92 100 
92 740 
93 98 
93 100 
93 103 
94 97 
94 99 
94 104 
95 99 
95 100 
95 105 
96 97 
96 98 
96 106 
101 108 
101 109 
101 111 
101 741 
101 743 
102 107 
102 110 
102 112 
102 742 
102 744 
103 108 
103 110 
104 107 
104 109 
105 109 
105 110 
106 107 
106 108 
111 118 
111 119 
111 743 
112 117 
112 120 
112 744 
113 118 
113 120 
113 123 
114 117 
114 119 
114 124 
115 119 
115 120 
115 125 
116 117 
116 118 
116 126 
121 128 
121 129 
121 131 
121 745 
121 747 
122 127 
122 130 
122 132 
122 746 
122 748 
123 128 
123 130 
124 127 
124 129 
125 129 
125 130 
126 127 
126 128 
131 138 
131 139 
131 747 
132 137 
132 140 
132 748 
133 138 
133 140 
133 143 
134 137 
134 139 
134 144 
135 139 
135 140 
135 145 
136 137 
136 138 
136 146 
141 148 
141 149 
141 151 
141 749 
141 751 
142 147 
142 150 
142 152 
142 750 
142 752 
143 148 
143 150 
144 147 
144 149 
145 149 
145 150 
146 147 
146 148 
151 158 
151 159 
151 751 
152 157 
152 160 
152 752 
153 158 
153 160 
153 163 
154 157 
154 159 
154 164 
155 159 
155 160 
155 165 
156 157 
156 158 
156 166 
161 168 
161 169 
161 171 
161 753 
161 755 
162 167 
162 170 
162 172 
162 754 
162 756 
163 168 
163 170 
164 167 
164 169 
165 169 
165 170 
166 167 
166 168 
171 178 
171 179 
171 755 
172 177 
172 180 
172 756 
173 178 
173 180 
173 183 
174 177 
174 179 
174 184 
175 179 
175 180 
175 185 
176 177 
176 178 
176 186 
181 188 
181 189 
181 191 
181 757 
181 759 
182 187 
182 190 
182 192 
182 758 
182 760 
183 188 
183 190 
184 187 
184 189 
185 189 
185 190 
186 187 
186 188 
191 198 
191 199 
191 759 
192 197 
192 200 
192 760 
193 198 
193 200 
193 203 
194 197 
194 199 
194 204 
195 199 
195 200 
195 205 
196 197 
196 198 
196 206 
201 208 
201 209 
201 211 
201 761 
201 763 
202 207 
202 210 
202 212 
202 762 
202 764 
203 208 
203 210 
204 207 
204 209 
205 209 
205 210 
206 207 
206 208 
211 218 
211 219 
211 763 
212 217 
212 220 
212 764 
213 218 
213 220 
213 223 
214 217 
214 219 
214 224 
215 219 
215 220 
215 225 
216 217 
216 218 
216 226 
221 228 
221 229 
221 231 
221 765 
221 767 
222 227 
222 230 
222 232 
222 766 
222 768 
223 228 
223 230 
224 227 
224 229 
225 229 
225 230 
226 227 
226 228 
231 238 
231 239 
231 767 
232 237 
232 240 
232 768 
233 238 
233 240 
233 243 
234 237 
234 239 
234 244 
235 239 
235 240 
235 245 
236 237 
236 238 
236 246 
241 248 
241 249 
241 251 
241 769 
241 771 
242 247 
242 250 
242 252 
242 770 
242 772 
243 248 
243 250 
244 247 
244 249 
245 249 
245 250 
246 247 
246 248 
251 258 
251 259 
251 771 
252 257 
252 260 
252 772 
253 258 
253 260 
253 263 
254 257 
254 259 
254 264 
255 259 
255 260 
255 265 
256 257 
256 258 
256 266 
261 268 
261 269 
261 271 
261 773 
261 775 
262 267 
262 270 
262 272 
262 774 
262 776 
263 268 
263 270 
264 267 
264 269 
265 269 
265 270 
266 267 
266 268 
271 278 
271 279 
271 775 
272 277 
272 280 
272 776 
273 278 
273 280 
273 283 
274 277 
274 279 
274 284 
275 279 
275 280 
275 285 
276 277 
276 278 
276 286 
281 288 
281 289 
281 291 
281 777 
281 779 
282 287 
282 290 
282 292 
282 778 
282 780 
283 288 
283 290 
284 287 
284 289 
285 289 
285 290 
286 287 
286 288 
291 298 
291 299 
291 779 
292 297 
292 300 
292 780 
293 298 
293 300 
293 303 
294 297 
294 299 
294 304 
295 299 
295 300 
295 305 
296 297 
296 298 
296 306 
301 308 
301 309 
301 311 
301 781 
301 783 
302 307 
302 310 
302 312 
302 782 
302 784 
303 308 
303 310 
304 307 
304 309 
305 309 
305 310 
306 307 
306 308 
311 318 
311 319 
311 783 
312 317 
312 320 
312 784 
313 318 
313 320 
313 323 
314 317 
314 319 
314 324 
315 319 
315 320 
315 325 
316 317 
316 318 
316 326 
321 328 
321 329 
321 331 
321 785 
321 787 
322 327 
322 330 
322 332 
322 786 
322 788 
323 328 
323 330 
324 327 
324 329 
325 329 
325 330 
326 327 
326 328 
331 338 
331 339 
331 787 
332 337 
332 340 
332 788 
333 338 
333 340 
333 343 
334 337 
334 339 
334 344 
335 339 
335 340 
335 345 
336 337 
336 338 
336 346 
341 348 
341 349 
341 351 
341 789 
341 791 
342 347 
342 350 
342 352 
342 790 
342 792 
343 348 
343 350 
344 347 
344 349 
345 349 
345 350 
346 347 
346 348 
351 358 
351 359 
351 791 
352 357 
352 360 
352 792 
353 358 
353 360 
353 363 
354 357 
354 359 
354 364 
355 359 
355 360 
355 365 
356 357 
356 358 
356 366 
361 368 
361 369 
361 371 
361 793 
361 795 
362 367 
362 370 
362 372 
362 794 
362 796 
363 368 
363 370 
364 367 
364 369 
365 369 
365 370 
366 367 
366 368 
371 378 
371 379 
371 795 
372 377 
372 380 
372 796 
373 378 
373 380 
373 383 
374 377 
374 379 
374 384 
375 379 
375 380 
375 385 
376 377 
376 378 
376 386 
381 388 
381 389 
381 391 
381 797 
381 799 
382 387 
382 390 
382 392 
382 798 
382 800 
383 388 
383 390 
384 387 
384 389 
385 389 
385 390 
386 387 
386 388 
391 398 
391 399 
391 799 
392 397 
392 400 
392 800 
393 398 
393 400 
393 403 
394 397 
394 399 
394 404 
395 399 
395 400 
395 405 
396 397 
396 398 
396 406 
401 408 
401 409 
401 411 
401 801 
401 803 
402 407 
402 410 
402 412 
402 802 
402 804 
403 408 
403 410 
404 407 
404 409 
405 409 
405 410 
406 407 
406 408 
411 418 
411 419 
411 803 
412 417 
412 420 
412 804 
413 418 
413 420 
413 423 
414 417 
414 419 
414 424 
415 419 
415 420 
415 425 
416 417 
416 418 
416 426 
421 428 
421 429 
421 431 
421 805 
421 807 
422 427 
422 430 
422 432 
422 806 
422 808 
423 428 
423 430 
424 427 
424 429 
425 429 
425 430 
426 427 
426 428 
431 438 
431 439 
431 807 
432 437 
432 440 
432 808 
433 438 
433 440 
433 443 
434 437 
434 439 
434 444 
435 439 
435 440 
435 445 
436 437 
436 438 
436 446 
441 448 
441 449 
441 451 
441 809 
441 811 
442 447 
442 450 
442 452 
442 810 
442 812 
443 448 
443 450 
444 447 
444 449 
445 449 
445 450 
446 447 
446 448 
451 458 
451 459 
451 811 
452 457 
452 460 
452 812 
453 458 
453 460 
453 463 
454 457 
454 459 
454 464 
455 459 
455 460 
455 465 
456 457 
456 458 
456 466 
461 468 
461 469 
461 471 
461 813 
461 815 
462 467 
462 470 
462 472 
462 814 
462 816 
463 468 
463 470 
464 467 
464 469 
465 469 
465 470 
466 467 
466 468 
471 478 
471 479 
471 815 
472 477 
472 480 
472 816 
473 478 
473 480 
473 483 
474 477 
474 479 
474 484 
475 479 
475 480 
475 485 
476 477 
476 478 
476 486 
481 488 
481 489 
481 491 
481 817 
481 819 
482 487 
482 490 
482 492 
482 818 
482 820 
483 488 
483 490 
484 487 
484 489 
485 489 
485 490 
486 487 
486 488 
491 498 
491 499 
491 819 
492 497 
492 500 
492 820 
493 498 
493 500 
493 503 
494 497 
494 499 
494 504 
495 499 
495 500 
495 505 
496 497 
496 498 
496 506 
501 508 
501 509 
501 511 
501 821 
501 823 
502 507 
502 510 
502 512 
502 822 
502 824 
503 508 
503 510 
504 507 
504 509 
505 509 
505 510 
506 507 
506 508 
511 518 
511 519 
511 823 
512 517 
512 520 
512 824 
513 518 
513 520 
513 523 
514 517 
514 519 
514 524 
515 519 
515 520 
515 525 
516 517 
516 518 
516 526 
521 528 
521 529 
521 531 
521 825 
521 827 
522 527 
522 530 
522 532 
522 826 
522 828 
523 528 
523 530 
524 527 
524 529 
525 529 
525 530 
526 527 
526 528 
531 538 
531 539 
531 827 
532 537 
532 540 
532 828 
533 538 
533 540 
533 543 
534 537 
534 539 
534 544 
535 539 
535 540 
535 545 
536 537 
536 538 
536 546 
541 548 
541 549 
541 551 
541 829 
541 831 
542 547 
542 550 
542 552 
542 830 
542 832 
543 548 
543 550 
544 547 
544 549 
545 549 
545 550 
546 547 
546 548 
551 558 
551 559 
551 831 
552 557 
552 560 
552 832 
553 558 
553 560 
553 563 
554 557 
554 559 
554 564 
555 559 
555 560 
555 565 
556 557 
556 558 
556 566 
561 568 
561 569 
561 571 
561 833 
561 835 
562 567 
562 570 
562 572 
562 834 
562 836 
563 568 
563 570 
564 567 
564 569 
565 569 
565 570 
566 567 
566 568 
571 578 
571 579 
571 835 
572 577 
572 580 
572 836 
573 578 
573 580 
573 583 
574 577 
574 579 
574 584 
575 579 
575 580 
575 585 
576 577 
576 578 
576 586 
581 588 
581 589 
581 591 
581 837 
581 839 
582 587 
582 590 
582 592 
582 838 
582 840 
583 588 
583 590 
584 587 
584 589 
585 589 
585 590 
586 587 
586 588 
591 598 
591 599 
591 839 
592 597 
592 600 
592 840 
593 598 
593 600 
593 603 
594 597 
594 599 
594 604 
595 599 
595 600 
595 605 
596 597 
596 598 
596 606 
601 608 
601 609 
601 611 
601 841 
601 843 
602 607 
602 610 
602 612 
602 842 
602 844 
603 608 
603 610 
604 607 
604 609 
605 609 
605 610 
606 607 
606 608 
611 618 
611 619 
611 843 
612 617 
612 620 
612 844 
613 618 
613 620 
613 623 
614 617 
614 619 
614 624 
615 619 
615 620 
615 625 
616 617 
616 618 
616 626 
621 628 
621 629 
621 631 
621 845 
621 847 
622 627 
622 630 
622 632 
622 846 
622 848 
623 628 
623 630 
624 627 
624 629 
625 629 
625 630 
626 627 
626 628 
631 638 
631 639 
631 847 
632 637 
632 640 
632 848 
633 638 
633 640 
633 643 
634 637 
634 639 
634 644 
635 639 
635 640 
635 645 
636 637 
636 638 
636 646 
641 648 
641 649 
641 651 
641 849 
641 851 
642 647 
642 650 
642 652 
642 850 
642 852 
643 648 
643 650 
644 647 
644 649 
645 649 
645 650 
646 647 
646 648 
651 658 
651 659 
651 851 
652 657 
652 660 
652 852 
653 658 
653 660 
653 663 
654 657 
654 659 
654 664 
655 659 
655 660 
655 665 
656 657 
656 658 
656 666 
661 668 
661 669 
661 671 
661 853 
661 855 
662 667 
662 670 
662 672 
662 854 
662 856 
663 668 
663 670 
664 667 
664 669 
665 669 
665 670 
666 667 
666 668 
671 678 
671 679 
671 855 
672 677 
672 680 
672 856 
673 678 
673 680 
673 683 
674 677 
674 679 
674 684 
675 679 
675 680 
675 685 
676 677 
676 678 
676 686 
681 688 
681 689 
681 691 
681 857 
681 859 
682 687 
682 690 
682 692 
682 858 
682 860 
683 688 
683 690 
684 687 
684 689 
685 689 
685 690 
686 687 
686 688 
691 698 
691 699 
691 859 
692 697 
692 700 
692 860 
693 698 
693 700 
693 703 
694 697 
694 699 
694 704 
695 699 
695 700 
695 705 
696 697 
696 698 
696 706 
701 708 
701 709 
701 711 
701 861 
701 863 
702 707 
702 710 
702 712 
702 862 
702 864 
703 708 
703 710 
704 707 
704 709 
705 709 
705 710 
706 707 
706 708 
711 718 
711 719 
711 863 
712 717 
712 720 
712 864 
713 718 
713 720 
714 717 
714 719 
715 719 
715 720 
716 717 
716 718 
721 722 
723 724 
725 726 
727 728 
729 730 
731 732 
733 734 
735 736 
737 738 
739 740 
741 742 
743 744 
745 746 
747 748 
749 750 
751 752 
753 754 
755 756 
757 758 
759 760 
761 762 
763 764 
765 766 
767 768 
769 770 
771 772 
773 774 
775 776 
777 778 
779 780 
781 782 
783 784 
785 786 
787 788 
789 790 
791 792 
793 794 
795 796 
797 798 
799 800 
801 802 
803 804 
805 806 
807 808 
809 810 
811 812 
813 814 
815 816 
817 818 
819 820 
821 822 
823 824 
825 826 
827 828 
829 830 
831 832 
833 834 
835 836 
837 838 
839 840 
841 842 
843 844 
845 846 
847 848 
849 850 
851 852 
853 854 
855 856 
857 858 
859 860 
861 862 
863 864 
